
Log started (V12.6.3.0) Tue Jun  6 16:47:34 2017

New value for default parallel thread count: 1

Problem '/tmp/tmp5CgYxE.pyomo.lp' read.
Read time = 0.00 sec. (0.01 ticks)

Problem name         : /tmp/tmp5CgYxE.pyomo.lp
Objective sense      : Minimize
Variables            :      74  [Nneg: 64,  Binary: 9,  General Integer: 1]
Objective nonzeros   :       1
Linear constraints   :      43  [Less: 9,  Equal: 34]
  Nonzeros           :     185
  RHS nonzeros       :       7

Variables            : Min LB: 0.000000         Max UB: 1.000000       
Objective nonzeros   : Min   : 1.000000         Max   : 1.000000       
Linear constraints   :
  Nonzeros           : Min   : 1.000000         Max   : 1000.000       
  RHS nonzeros       : Min   : 1.000000         Max   : 1000.000       
Found incumbent of value 3.000000 after 0.00 sec. (0.01 ticks)
Tried aggregator 2 times.
MIP Presolve eliminated 43 rows and 74 columns.
MIP Presolve added 1 rows and 1 columns.
Aggregator did 1 substitutions.
All rows and columns eliminated.
Presolve time = 0.00 sec. (0.05 ticks)

Root node processing (before b&c):
  Real time             =    0.00 sec. (0.06 ticks)
Sequential b&c:
  Real time             =    0.00 sec. (0.00 ticks)
                          ------------
Total (root+branch&cut) =    0.00 sec. (0.06 ticks)

Solution pool: 1 solution saved.

MIP - Integer optimal solution:  Objective =  3.0000000000e+00
Solution time =    0.00 sec.  Iterations = 0  Nodes = 0
Deterministic time = 0.06 ticks  (62.60 ticks/sec)


Incumbent solution written to file '/tmp/tmpcjWtiz.cplex.sol'.

Log started (V12.6.3.0) Mon Jul 24 16:46:04 2017

New value for default parallel thread count: 1

Problem '/tmp/tmpX3yHfM.pyomo.lp' read.
Read time = 0.00 sec. (0.01 ticks)

Problem name         : /tmp/tmpX3yHfM.pyomo.lp
Objective sense      : Minimize
Variables            :      74  [Nneg: 64,  Binary: 9,  General Integer: 1]
Objective nonzeros   :       1
Linear constraints   :      43  [Less: 9,  Equal: 34]
  Nonzeros           :     185
  RHS nonzeros       :       7

Variables            : Min LB: 0.000000         Max UB: 1.000000       
Objective nonzeros   : Min   : 1.000000         Max   : 1.000000       
Linear constraints   :
  Nonzeros           : Min   : 1.000000         Max   : 1000.000       
  RHS nonzeros       : Min   : 1.000000         Max   : 1000.000       
Found incumbent of value 3.000000 after 0.00 sec. (0.01 ticks)
Tried aggregator 2 times.
MIP Presolve eliminated 43 rows and 74 columns.
MIP Presolve added 1 rows and 1 columns.
Aggregator did 1 substitutions.
All rows and columns eliminated.
Presolve time = 0.00 sec. (0.05 ticks)

Root node processing (before b&c):
  Real time             =    0.00 sec. (0.06 ticks)
Sequential b&c:
  Real time             =    0.00 sec. (0.00 ticks)
                          ------------
Total (root+branch&cut) =    0.00 sec. (0.06 ticks)

Solution pool: 1 solution saved.

MIP - Integer optimal solution:  Objective =  3.0000000000e+00
Solution time =    0.00 sec.  Iterations = 0  Nodes = 0
Deterministic time = 0.06 ticks  (62.60 ticks/sec)


Incumbent solution written to file '/tmp/tmpiGfAHO.cplex.sol'.

Log started (V12.6.3.0) Mon Jul 24 16:58:58 2017

New value for default parallel thread count: 1

Problem '/tmp/tmp22csUe.pyomo.lp' read.
Read time = 0.00 sec. (0.01 ticks)

Problem name         : /tmp/tmp22csUe.pyomo.lp
Objective sense      : Minimize
Variables            :      74  [Nneg: 64,  Binary: 9,  General Integer: 1]
Objective nonzeros   :       1
Linear constraints   :      43  [Less: 9,  Equal: 34]
  Nonzeros           :     185
  RHS nonzeros       :       7

Variables            : Min LB: 0.000000         Max UB: 1.000000       
Objective nonzeros   : Min   : 1.000000         Max   : 1.000000       
Linear constraints   :
  Nonzeros           : Min   : 1.000000         Max   : 1000.000       
  RHS nonzeros       : Min   : 1.000000         Max   : 1000.000       
Found incumbent of value 3.000000 after 0.00 sec. (0.01 ticks)
Tried aggregator 2 times.
MIP Presolve eliminated 43 rows and 74 columns.
MIP Presolve added 1 rows and 1 columns.
Aggregator did 1 substitutions.
All rows and columns eliminated.
Presolve time = 0.00 sec. (0.05 ticks)

Root node processing (before b&c):
  Real time             =    0.00 sec. (0.06 ticks)
Sequential b&c:
  Real time             =    0.00 sec. (0.00 ticks)
                          ------------
Total (root+branch&cut) =    0.00 sec. (0.06 ticks)

Solution pool: 1 solution saved.

MIP - Integer optimal solution:  Objective =  3.0000000000e+00
Solution time =    0.00 sec.  Iterations = 0  Nodes = 0
Deterministic time = 0.06 ticks  (62.60 ticks/sec)


Incumbent solution written to file '/tmp/tmpbnqHW8.cplex.sol'.

Log started (V12.6.3.0) Wed Jul 26 16:03:16 2017

New value for default parallel thread count: 1

Problem '/tmp/tmp6bgYbG.pyomo.lp' read.
Read time = 0.00 sec. (0.01 ticks)

Problem name         : /tmp/tmp6bgYbG.pyomo.lp
Objective sense      : Minimize
Variables            :      74  [Nneg: 64,  Binary: 9,  General Integer: 1]
Objective nonzeros   :       1
Linear constraints   :      43  [Less: 9,  Equal: 34]
  Nonzeros           :     185
  RHS nonzeros       :       7

Variables            : Min LB: 0.000000         Max UB: 1.000000       
Objective nonzeros   : Min   : 1.000000         Max   : 1.000000       
Linear constraints   :
  Nonzeros           : Min   : 1.000000         Max   : 1000.000       
  RHS nonzeros       : Min   : 1.000000         Max   : 1000.000       
Found incumbent of value 3.000000 after 0.00 sec. (0.01 ticks)
Tried aggregator 2 times.
MIP Presolve eliminated 43 rows and 74 columns.
MIP Presolve added 1 rows and 1 columns.
Aggregator did 1 substitutions.
All rows and columns eliminated.
Presolve time = 0.00 sec. (0.05 ticks)

Root node processing (before b&c):
  Real time             =    0.00 sec. (0.06 ticks)
Sequential b&c:
  Real time             =    0.00 sec. (0.00 ticks)
                          ------------
Total (root+branch&cut) =    0.00 sec. (0.06 ticks)

Solution pool: 1 solution saved.

MIP - Integer optimal solution:  Objective =  3.0000000000e+00
Solution time =    0.00 sec.  Iterations = 0  Nodes = 0
Deterministic time = 0.06 ticks  (62.60 ticks/sec)


Incumbent solution written to file '/tmp/tmpF8bwPl.cplex.sol'.
